p cnf 544 1815
-1 0
-273 0
289 2 0
-289 -2 0
2 305 3 0
-2 -305 0
-2 -3 0
-305 -3 0
3 321 4 0
-3 -321 0
-3 -4 0
-321 -4 0
4 337 5 0
-4 -337 0
-4 -5 0
-337 -5 0
5 353 6 0
-5 -353 0
-5 -6 0
-353 -6 0
6 369 7 0
-6 -369 0
-6 -7 0
-369 -7 0
7 385 8 0
-7 -385 0
-7 -8 0
-385 -8 0
8 401 9 0
-8 -401 0
-8 -9 0
-401 -9 0
9 417 10 0
-9 -417 0
-9 -10 0
-417 -10 0
10 433 11 0
-10 -433 0
-10 -11 0
-433 -11 0
11 449 12 0
-11 -449 0
-11 -12 0
-449 -12 0
12 465 13 0
-12 -465 0
-12 -13 0
-465 -13 0
13 481 14 0
-13 -481 0
-13 -14 0
-481 -14 0
14 497 15 0
-14 -497 0
-14 -15 0
-497 -15 0
15 513 16 0
-15 -513 0
-15 -16 0
-513 -16 0
16 529 0
-16 -529 0
274 17 0
-274 -17 0
289 17 290 18 0
-289 -17 0
-289 -290 0
-289 -18 0
-17 -290 0
-17 -18 0
-290 -18 0
305 18 306 19 0
-305 -18 0
-305 -306 0
-305 -19 0
-18 -306 0
-18 -19 0
-306 -19 0
321 19 322 20 0
-321 -19 0
-321 -322 0
-321 -20 0
-19 -322 0
-19 -20 0
-322 -20 0
337 20 338 21 0
-337 -20 0
-337 -338 0
-337 -21 0
-20 -338 0
-20 -21 0
-338 -21 0
353 21 354 22 0
-353 -21 0
-353 -354 0
-353 -22 0
-21 -354 0
-21 -22 0
-354 -22 0
369 22 370 23 0
-369 -22 0
-369 -370 0
-369 -23 0
-22 -370 0
-22 -23 0
-370 -23 0
385 23 386 24 0
-385 -23 0
-385 -386 0
-385 -24 0
-23 -386 0
-23 -24 0
-386 -24 0
401 24 402 25 0
-401 -24 0
-401 -402 0
-401 -25 0
-24 -402 0
-24 -25 0
-402 -25 0
417 25 418 26 0
-417 -25 0
-417 -418 0
-417 -26 0
-25 -418 0
-25 -26 0
-418 -26 0
433 26 434 27 0
-433 -26 0
-433 -434 0
-433 -27 0
-26 -434 0
-26 -27 0
-434 -27 0
449 27 450 28 0
-449 -27 0
-449 -450 0
-449 -28 0
-27 -450 0
-27 -28 0
-450 -28 0
465 28 466 29 0
-465 -28 0
-465 -466 0
-465 -29 0
-28 -466 0
-28 -29 0
-466 -29 0
481 29 482 30 0
-481 -29 0
-481 -482 0
-481 -30 0
-29 -482 0
-29 -30 0
-482 -30 0
497 30 498 31 0
-497 -30 0
-497 -498 0
-497 -31 0
-30 -498 0
-30 -31 0
-498 -31 0
513 31 514 32 0
-513 -31 0
-513 -514 0
-513 -32 0
-31 -514 0
-31 -32 0
-514 -32 0
529 32 530 0
-529 -32 0
-529 -530 0
-32 -530 0
274 275 33 0
-274 -275 0
-274 -33 0
-275 -33 0
290 33 291 34 0
-290 -33 0
-290 -291 0
-290 -34 0
-33 -291 0
-33 -34 0
-291 -34 0
306 34 307 35 0
-306 -34 0
-306 -307 0
-306 -35 0
-34 -307 0
-34 -35 0
-307 -35 0
322 35 323 36 0
-322 -35 0
-322 -323 0
-322 -36 0
-35 -323 0
-35 -36 0
-323 -36 0
338 36 339 37 0
-338 -36 0
-338 -339 0
-338 -37 0
-36 -339 0
-36 -37 0
-339 -37 0
354 37 355 38 0
-354 -37 0
-354 -355 0
-354 -38 0
-37 -355 0
-37 -38 0
-355 -38 0
370 38 371 39 0
-370 -38 0
-370 -371 0
-370 -39 0
-38 -371 0
-38 -39 0
-371 -39 0
386 39 387 40 0
-386 -39 0
-386 -387 0
-386 -40 0
-39 -387 0
-39 -40 0
-387 -40 0
402 40 403 41 0
-402 -40 0
-402 -403 0
-402 -41 0
-40 -403 0
-40 -41 0
-403 -41 0
418 41 419 42 0
-418 -41 0
-418 -419 0
-418 -42 0
-41 -419 0
-41 -42 0
-419 -42 0
434 42 435 43 0
-434 -42 0
-434 -435 0
-434 -43 0
-42 -435 0
-42 -43 0
-435 -43 0
450 43 451 44 0
-450 -43 0
-450 -451 0
-450 -44 0
-43 -451 0
-43 -44 0
-451 -44 0
466 44 467 45 0
-466 -44 0
-466 -467 0
-466 -45 0
-44 -467 0
-44 -45 0
-467 -45 0
482 45 483 46 0
-482 -45 0
-482 -483 0
-482 -46 0
-45 -483 0
-45 -46 0
-483 -46 0
498 46 499 47 0
-498 -46 0
-498 -499 0
-498 -47 0
-46 -499 0
-46 -47 0
-499 -47 0
514 47 515 48 0
-514 -47 0
-514 -515 0
-514 -48 0
-47 -515 0
-47 -48 0
-515 -48 0
530 48 531 0
-530 -48 0
-530 -531 0
-48 -531 0
275 276 49 0
-275 -276 0
-275 -49 0
-276 -49 0
291 49 292 50 0
-291 -49 0
-291 -292 0
-291 -50 0
-49 -292 0
-49 -50 0
-292 -50 0
307 50 308 51 0
-307 -50 0
-307 -308 0
-307 -51 0
-50 -308 0
-50 -51 0
-308 -51 0
323 51 324 52 0
-323 -51 0
-323 -324 0
-323 -52 0
-51 -324 0
-51 -52 0
-324 -52 0
339 52 340 53 0
-339 -52 0
-339 -340 0
-339 -53 0
-52 -340 0
-52 -53 0
-340 -53 0
355 53 356 54 0
-355 -53 0
-355 -356 0
-355 -54 0
-53 -356 0
-53 -54 0
-356 -54 0
371 54 372 55 0
-371 -54 0
-371 -372 0
-371 -55 0
-54 -372 0
-54 -55 0
-372 -55 0
387 55 388 56 0
-387 -55 0
-387 -388 0
-387 -56 0
-55 -388 0
-55 -56 0
-388 -56 0
403 56 404 57 0
-403 -56 0
-403 -404 0
-403 -57 0
-56 -404 0
-56 -57 0
-404 -57 0
419 57 420 58 0
-419 -57 0
-419 -420 0
-419 -58 0
-57 -420 0
-57 -58 0
-420 -58 0
435 58 436 59 0
-435 -58 0
-435 -436 0
-435 -59 0
-58 -436 0
-58 -59 0
-436 -59 0
451 59 452 60 0
-451 -59 0
-451 -452 0
-451 -60 0
-59 -452 0
-59 -60 0
-452 -60 0
467 60 468 61 0
-467 -60 0
-467 -468 0
-467 -61 0
-60 -468 0
-60 -61 0
-468 -61 0
483 61 484 62 0
-483 -61 0
-483 -484 0
-483 -62 0
-61 -484 0
-61 -62 0
-484 -62 0
499 62 500 63 0
-499 -62 0
-499 -500 0
-499 -63 0
-62 -500 0
-62 -63 0
-500 -63 0
515 63 516 64 0
-515 -63 0
-515 -516 0
-515 -64 0
-63 -516 0
-63 -64 0
-516 -64 0
531 64 532 0
-531 -64 0
-531 -532 0
-64 -532 0
276 277 65 0
-276 -277 0
-276 -65 0
-277 -65 0
292 65 293 66 0
-292 -65 0
-292 -293 0
-292 -66 0
-65 -293 0
-65 -66 0
-293 -66 0
308 66 309 67 0
-308 -66 0
-308 -309 0
-308 -67 0
-66 -309 0
-66 -67 0
-309 -67 0
324 67 325 68 0
-324 -67 0
-324 -325 0
-324 -68 0
-67 -325 0
-67 -68 0
-325 -68 0
340 68 341 69 0
-340 -68 0
-340 -341 0
-340 -69 0
-68 -341 0
-68 -69 0
-341 -69 0
356 69 357 70 0
-356 -69 0
-356 -357 0
-356 -70 0
-69 -357 0
-69 -70 0
-357 -70 0
372 70 373 71 0
-372 -70 0
-372 -373 0
-372 -71 0
-70 -373 0
-70 -71 0
-373 -71 0
388 71 389 72 0
-388 -71 0
-388 -389 0
-388 -72 0
-71 -389 0
-71 -72 0
-389 -72 0
404 72 405 73 0
-404 -72 0
-404 -405 0
-404 -73 0
-72 -405 0
-72 -73 0
-405 -73 0
420 73 421 74 0
-420 -73 0
-420 -421 0
-420 -74 0
-73 -421 0
-73 -74 0
-421 -74 0
436 74 437 75 0
-436 -74 0
-436 -437 0
-436 -75 0
-74 -437 0
-74 -75 0
-437 -75 0
452 75 453 76 0
-452 -75 0
-452 -453 0
-452 -76 0
-75 -453 0
-75 -76 0
-453 -76 0
468 76 469 77 0
-468 -76 0
-468 -469 0
-468 -77 0
-76 -469 0
-76 -77 0
-469 -77 0
484 77 485 78 0
-484 -77 0
-484 -485 0
-484 -78 0
-77 -485 0
-77 -78 0
-485 -78 0
500 78 501 79 0
-500 -78 0
-500 -501 0
-500 -79 0
-78 -501 0
-78 -79 0
-501 -79 0
516 79 517 80 0
-516 -79 0
-516 -517 0
-516 -80 0
-79 -517 0
-79 -80 0
-517 -80 0
532 80 533 0
-532 -80 0
-532 -533 0
-80 -533 0
277 278 81 0
-277 -278 0
-277 -81 0
-278 -81 0
293 81 294 82 0
-293 -81 0
-293 -294 0
-293 -82 0
-81 -294 0
-81 -82 0
-294 -82 0
309 82 310 83 0
-309 -82 0
-309 -310 0
-309 -83 0
-82 -310 0
-82 -83 0
-310 -83 0
325 83 326 84 0
-325 -83 0
-325 -326 0
-325 -84 0
-83 -326 0
-83 -84 0
-326 -84 0
341 84 342 85 0
-341 -84 0
-341 -342 0
-341 -85 0
-84 -342 0
-84 -85 0
-342 -85 0
357 85 358 86 0
-357 -85 0
-357 -358 0
-357 -86 0
-85 -358 0
-85 -86 0
-358 -86 0
373 86 374 87 0
-373 -86 0
-373 -374 0
-373 -87 0
-86 -374 0
-86 -87 0
-374 -87 0
389 87 390 88 0
-389 -87 0
-389 -390 0
-389 -88 0
-87 -390 0
-87 -88 0
-390 -88 0
405 88 406 89 0
-405 -88 0
-405 -406 0
-405 -89 0
-88 -406 0
-88 -89 0
-406 -89 0
421 89 422 90 0
-421 -89 0
-421 -422 0
-421 -90 0
-89 -422 0
-89 -90 0
-422 -90 0
437 90 438 91 0
-437 -90 0
-437 -438 0
-437 -91 0
-90 -438 0
-90 -91 0
-438 -91 0
453 91 454 92 0
-453 -91 0
-453 -454 0
-453 -92 0
-91 -454 0
-91 -92 0
-454 -92 0
469 92 470 93 0
-469 -92 0
-469 -470 0
-469 -93 0
-92 -470 0
-92 -93 0
-470 -93 0
485 93 486 94 0
-485 -93 0
-485 -486 0
-485 -94 0
-93 -486 0
-93 -94 0
-486 -94 0
501 94 502 95 0
-501 -94 0
-501 -502 0
-501 -95 0
-94 -502 0
-94 -95 0
-502 -95 0
517 95 518 96 0
-517 -95 0
-517 -518 0
-517 -96 0
-95 -518 0
-95 -96 0
-518 -96 0
533 96 534 0
-533 -96 0
-533 -534 0
-96 -534 0
278 279 97 0
-278 -279 0
-278 -97 0
-279 -97 0
294 97 295 98 0
-294 -97 0
-294 -295 0
-294 -98 0
-97 -295 0
-97 -98 0
-295 -98 0
310 98 311 99 0
-310 -98 0
-310 -311 0
-310 -99 0
-98 -311 0
-98 -99 0
-311 -99 0
326 99 327 100 0
-326 -99 0
-326 -327 0
-326 -100 0
-99 -327 0
-99 -100 0
-327 -100 0
342 100 343 101 0
-342 -100 0
-342 -343 0
-342 -101 0
-100 -343 0
-100 -101 0
-343 -101 0
358 101 359 102 0
-358 -101 0
-358 -359 0
-358 -102 0
-101 -359 0
-101 -102 0
-359 -102 0
374 102 375 103 0
-374 -102 0
-374 -375 0
-374 -103 0
-102 -375 0
-102 -103 0
-375 -103 0
390 103 391 104 0
-390 -103 0
-390 -391 0
-390 -104 0
-103 -391 0
-103 -104 0
-391 -104 0
406 104 407 105 0
-406 -104 0
-406 -407 0
-406 -105 0
-104 -407 0
-104 -105 0
-407 -105 0
422 105 423 106 0
-422 -105 0
-422 -423 0
-422 -106 0
-105 -423 0
-105 -106 0
-423 -106 0
438 106 439 107 0
-438 -106 0
-438 -439 0
-438 -107 0
-106 -439 0
-106 -107 0
-439 -107 0
454 107 455 108 0
-454 -107 0
-454 -455 0
-454 -108 0
-107 -455 0
-107 -108 0
-455 -108 0
470 108 471 109 0
-470 -108 0
-470 -471 0
-470 -109 0
-108 -471 0
-108 -109 0
-471 -109 0
486 109 487 110 0
-486 -109 0
-486 -487 0
-486 -110 0
-109 -487 0
-109 -110 0
-487 -110 0
502 110 503 111 0
-502 -110 0
-502 -503 0
-502 -111 0
-110 -503 0
-110 -111 0
-503 -111 0
518 111 519 112 0
-518 -111 0
-518 -519 0
-518 -112 0
-111 -519 0
-111 -112 0
-519 -112 0
534 112 535 0
-534 -112 0
-534 -535 0
-112 -535 0
279 280 113 0
-279 -280 0
-279 -113 0
-280 -113 0
295 113 296 114 0
-295 -113 0
-295 -296 0
-295 -114 0
-113 -296 0
-113 -114 0
-296 -114 0
311 114 312 115 0
-311 -114 0
-311 -312 0
-311 -115 0
-114 -312 0
-114 -115 0
-312 -115 0
327 115 328 116 0
-327 -115 0
-327 -328 0
-327 -116 0
-115 -328 0
-115 -116 0
-328 -116 0
343 116 344 117 0
-343 -116 0
-343 -344 0
-343 -117 0
-116 -344 0
-116 -117 0
-344 -117 0
359 117 360 118 0
-359 -117 0
-359 -360 0
-359 -118 0
-117 -360 0
-117 -118 0
-360 -118 0
375 118 376 119 0
-375 -118 0
-375 -376 0
-375 -119 0
-118 -376 0
-118 -119 0
-376 -119 0
391 119 392 120 0
-391 -119 0
-391 -392 0
-391 -120 0
-119 -392 0
-119 -120 0
-392 -120 0
407 120 408 121 0
-407 -120 0
-407 -408 0
-407 -121 0
-120 -408 0
-120 -121 0
-408 -121 0
423 121 424 122 0
-423 -121 0
-423 -424 0
-423 -122 0
-121 -424 0
-121 -122 0
-424 -122 0
439 122 440 123 0
-439 -122 0
-439 -440 0
-439 -123 0
-122 -440 0
-122 -123 0
-440 -123 0
455 123 456 124 0
-455 -123 0
-455 -456 0
-455 -124 0
-123 -456 0
-123 -124 0
-456 -124 0
471 124 472 125 0
-471 -124 0
-471 -472 0
-471 -125 0
-124 -472 0
-124 -125 0
-472 -125 0
487 125 488 126 0
-487 -125 0
-487 -488 0
-487 -126 0
-125 -488 0
-125 -126 0
-488 -126 0
503 126 504 127 0
-503 -126 0
-503 -504 0
-503 -127 0
-126 -504 0
-126 -127 0
-504 -127 0
519 127 520 128 0
-519 -127 0
-519 -520 0
-519 -128 0
-127 -520 0
-127 -128 0
-520 -128 0
535 128 536 0
-535 -128 0
-535 -536 0
-128 -536 0
280 281 129 0
-280 -281 0
-280 -129 0
-281 -129 0
296 129 297 130 0
-296 -129 0
-296 -297 0
-296 -130 0
-129 -297 0
-129 -130 0
-297 -130 0
312 130 313 131 0
-312 -130 0
-312 -313 0
-312 -131 0
-130 -313 0
-130 -131 0
-313 -131 0
328 131 329 132 0
-328 -131 0
-328 -329 0
-328 -132 0
-131 -329 0
-131 -132 0
-329 -132 0
344 132 345 133 0
-344 -132 0
-344 -345 0
-344 -133 0
-132 -345 0
-132 -133 0
-345 -133 0
360 133 361 134 0
-360 -133 0
-360 -361 0
-360 -134 0
-133 -361 0
-133 -134 0
-361 -134 0
376 134 377 135 0
-376 -134 0
-376 -377 0
-376 -135 0
-134 -377 0
-134 -135 0
-377 -135 0
392 135 393 136 0
-392 -135 0
-392 -393 0
-392 -136 0
-135 -393 0
-135 -136 0
-393 -136 0
408 136 409 137 0
-408 -136 0
-408 -409 0
-408 -137 0
-136 -409 0
-136 -137 0
-409 -137 0
424 137 425 138 0
-424 -137 0
-424 -425 0
-424 -138 0
-137 -425 0
-137 -138 0
-425 -138 0
440 138 441 139 0
-440 -138 0
-440 -441 0
-440 -139 0
-138 -441 0
-138 -139 0
-441 -139 0
456 139 457 140 0
-456 -139 0
-456 -457 0
-456 -140 0
-139 -457 0
-139 -140 0
-457 -140 0
472 140 473 141 0
-472 -140 0
-472 -473 0
-472 -141 0
-140 -473 0
-140 -141 0
-473 -141 0
488 141 489 142 0
-488 -141 0
-488 -489 0
-488 -142 0
-141 -489 0
-141 -142 0
-489 -142 0
504 142 505 143 0
-504 -142 0
-504 -505 0
-504 -143 0
-142 -505 0
-142 -143 0
-505 -143 0
520 143 521 144 0
-520 -143 0
-520 -521 0
-520 -144 0
-143 -521 0
-143 -144 0
-521 -144 0
536 144 537 0
-536 -144 0
-536 -537 0
-144 -537 0
281 282 145 0
-281 -282 0
-281 -145 0
-282 -145 0
297 145 298 146 0
-297 -145 0
-297 -298 0
-297 -146 0
-145 -298 0
-145 -146 0
-298 -146 0
313 146 314 147 0
-313 -146 0
-313 -314 0
-313 -147 0
-146 -314 0
-146 -147 0
-314 -147 0
329 147 330 148 0
-329 -147 0
-329 -330 0
-329 -148 0
-147 -330 0
-147 -148 0
-330 -148 0
345 148 346 149 0
-345 -148 0
-345 -346 0
-345 -149 0
-148 -346 0
-148 -149 0
-346 -149 0
361 149 362 150 0
-361 -149 0
-361 -362 0
-361 -150 0
-149 -362 0
-149 -150 0
-362 -150 0
377 150 378 151 0
-377 -150 0
-377 -378 0
-377 -151 0
-150 -378 0
-150 -151 0
-378 -151 0
393 151 394 152 0
-393 -151 0
-393 -394 0
-393 -152 0
-151 -394 0
-151 -152 0
-394 -152 0
409 152 410 153 0
-409 -152 0
-409 -410 0
-409 -153 0
-152 -410 0
-152 -153 0
-410 -153 0
425 153 426 154 0
-425 -153 0
-425 -426 0
-425 -154 0
-153 -426 0
-153 -154 0
-426 -154 0
441 154 442 155 0
-441 -154 0
-441 -442 0
-441 -155 0
-154 -442 0
-154 -155 0
-442 -155 0
457 155 458 156 0
-457 -155 0
-457 -458 0
-457 -156 0
-155 -458 0
-155 -156 0
-458 -156 0
473 156 474 157 0
-473 -156 0
-473 -474 0
-473 -157 0
-156 -474 0
-156 -157 0
-474 -157 0
489 157 490 158 0
-489 -157 0
-489 -490 0
-489 -158 0
-157 -490 0
-157 -158 0
-490 -158 0
505 158 506 159 0
-505 -158 0
-505 -506 0
-505 -159 0
-158 -506 0
-158 -159 0
-506 -159 0
521 159 522 160 0
-521 -159 0
-521 -522 0
-521 -160 0
-159 -522 0
-159 -160 0
-522 -160 0
537 160 538 0
-537 -160 0
-537 -538 0
-160 -538 0
282 283 161 0
-282 -283 0
-282 -161 0
-283 -161 0
298 161 299 162 0
-298 -161 0
-298 -299 0
-298 -162 0
-161 -299 0
-161 -162 0
-299 -162 0
314 162 315 163 0
-314 -162 0
-314 -315 0
-314 -163 0
-162 -315 0
-162 -163 0
-315 -163 0
330 163 331 164 0
-330 -163 0
-330 -331 0
-330 -164 0
-163 -331 0
-163 -164 0
-331 -164 0
346 164 347 165 0
-346 -164 0
-346 -347 0
-346 -165 0
-164 -347 0
-164 -165 0
-347 -165 0
362 165 363 166 0
-362 -165 0
-362 -363 0
-362 -166 0
-165 -363 0
-165 -166 0
-363 -166 0
378 166 379 167 0
-378 -166 0
-378 -379 0
-378 -167 0
-166 -379 0
-166 -167 0
-379 -167 0
394 167 395 168 0
-394 -167 0
-394 -395 0
-394 -168 0
-167 -395 0
-167 -168 0
-395 -168 0
410 168 411 169 0
-410 -168 0
-410 -411 0
-410 -169 0
-168 -411 0
-168 -169 0
-411 -169 0
426 169 427 170 0
-426 -169 0
-426 -427 0
-426 -170 0
-169 -427 0
-169 -170 0
-427 -170 0
442 170 443 171 0
-442 -170 0
-442 -443 0
-442 -171 0
-170 -443 0
-170 -171 0
-443 -171 0
458 171 459 172 0
-458 -171 0
-458 -459 0
-458 -172 0
-171 -459 0
-171 -172 0
-459 -172 0
474 172 475 173 0
-474 -172 0
-474 -475 0
-474 -173 0
-172 -475 0
-172 -173 0
-475 -173 0
490 173 491 174 0
-490 -173 0
-490 -491 0
-490 -174 0
-173 -491 0
-173 -174 0
-491 -174 0
506 174 507 175 0
-506 -174 0
-506 -507 0
-506 -175 0
-174 -507 0
-174 -175 0
-507 -175 0
522 175 523 176 0
-522 -175 0
-522 -523 0
-522 -176 0
-175 -523 0
-175 -176 0
-523 -176 0
538 176 539 0
-538 -176 0
-538 -539 0
-176 -539 0
283 284 177 0
-283 -284 0
-283 -177 0
-284 -177 0
299 177 300 178 0
-299 -177 0
-299 -300 0
-299 -178 0
-177 -300 0
-177 -178 0
-300 -178 0
315 178 316 179 0
-315 -178 0
-315 -316 0
-315 -179 0
-178 -316 0
-178 -179 0
-316 -179 0
331 179 332 180 0
-331 -179 0
-331 -332 0
-331 -180 0
-179 -332 0
-179 -180 0
-332 -180 0
347 180 348 181 0
-347 -180 0
-347 -348 0
-347 -181 0
-180 -348 0
-180 -181 0
-348 -181 0
363 181 364 182 0
-363 -181 0
-363 -364 0
-363 -182 0
-181 -364 0
-181 -182 0
-364 -182 0
379 182 380 183 0
-379 -182 0
-379 -380 0
-379 -183 0
-182 -380 0
-182 -183 0
-380 -183 0
395 183 396 184 0
-395 -183 0
-395 -396 0
-395 -184 0
-183 -396 0
-183 -184 0
-396 -184 0
411 184 412 185 0
-411 -184 0
-411 -412 0
-411 -185 0
-184 -412 0
-184 -185 0
-412 -185 0
427 185 428 186 0
-427 -185 0
-427 -428 0
-427 -186 0
-185 -428 0
-185 -186 0
-428 -186 0
443 186 444 187 0
-443 -186 0
-443 -444 0
-443 -187 0
-186 -444 0
-186 -187 0
-444 -187 0
459 187 460 188 0
-459 -187 0
-459 -460 0
-459 -188 0
-187 -460 0
-187 -188 0
-460 -188 0
475 188 476 189 0
-475 -188 0
-475 -476 0
-475 -189 0
-188 -476 0
-188 -189 0
-476 -189 0
491 189 492 190 0
-491 -189 0
-491 -492 0
-491 -190 0
-189 -492 0
-189 -190 0
-492 -190 0
507 190 508 191 0
-507 -190 0
-507 -508 0
-507 -191 0
-190 -508 0
-190 -191 0
-508 -191 0
523 191 524 192 0
-523 -191 0
-523 -524 0
-523 -192 0
-191 -524 0
-191 -192 0
-524 -192 0
539 192 540 0
-539 -192 0
-539 -540 0
-192 -540 0
284 285 193 0
-284 -285 0
-284 -193 0
-285 -193 0
300 193 301 194 0
-300 -193 0
-300 -301 0
-300 -194 0
-193 -301 0
-193 -194 0
-301 -194 0
316 194 317 195 0
-316 -194 0
-316 -317 0
-316 -195 0
-194 -317 0
-194 -195 0
-317 -195 0
332 195 333 196 0
-332 -195 0
-332 -333 0
-332 -196 0
-195 -333 0
-195 -196 0
-333 -196 0
348 196 349 197 0
-348 -196 0
-348 -349 0
-348 -197 0
-196 -349 0
-196 -197 0
-349 -197 0
364 197 365 198 0
-364 -197 0
-364 -365 0
-364 -198 0
-197 -365 0
-197 -198 0
-365 -198 0
380 198 381 199 0
-380 -198 0
-380 -381 0
-380 -199 0
-198 -381 0
-198 -199 0
-381 -199 0
396 199 397 200 0
-396 -199 0
-396 -397 0
-396 -200 0
-199 -397 0
-199 -200 0
-397 -200 0
412 200 413 201 0
-412 -200 0
-412 -413 0
-412 -201 0
-200 -413 0
-200 -201 0
-413 -201 0
428 201 429 202 0
-428 -201 0
-428 -429 0
-428 -202 0
-201 -429 0
-201 -202 0
-429 -202 0
444 202 445 203 0
-444 -202 0
-444 -445 0
-444 -203 0
-202 -445 0
-202 -203 0
-445 -203 0
460 203 461 204 0
-460 -203 0
-460 -461 0
-460 -204 0
-203 -461 0
-203 -204 0
-461 -204 0
476 204 477 205 0
-476 -204 0
-476 -477 0
-476 -205 0
-204 -477 0
-204 -205 0
-477 -205 0
492 205 493 206 0
-492 -205 0
-492 -493 0
-492 -206 0
-205 -493 0
-205 -206 0
-493 -206 0
508 206 509 207 0
-508 -206 0
-508 -509 0
-508 -207 0
-206 -509 0
-206 -207 0
-509 -207 0
524 207 525 208 0
-524 -207 0
-524 -525 0
-524 -208 0
-207 -525 0
-207 -208 0
-525 -208 0
540 208 541 0
-540 -208 0
-540 -541 0
-208 -541 0
285 286 209 0
-285 -286 0
-285 -209 0
-286 -209 0
301 209 302 210 0
-301 -209 0
-301 -302 0
-301 -210 0
-209 -302 0
-209 -210 0
-302 -210 0
317 210 318 211 0
-317 -210 0
-317 -318 0
-317 -211 0
-210 -318 0
-210 -211 0
-318 -211 0
333 211 334 212 0
-333 -211 0
-333 -334 0
-333 -212 0
-211 -334 0
-211 -212 0
-334 -212 0
349 212 350 213 0
-349 -212 0
-349 -350 0
-349 -213 0
-212 -350 0
-212 -213 0
-350 -213 0
365 213 366 214 0
-365 -213 0
-365 -366 0
-365 -214 0
-213 -366 0
-213 -214 0
-366 -214 0
381 214 382 215 0
-381 -214 0
-381 -382 0
-381 -215 0
-214 -382 0
-214 -215 0
-382 -215 0
397 215 398 216 0
-397 -215 0
-397 -398 0
-397 -216 0
-215 -398 0
-215 -216 0
-398 -216 0
413 216 414 217 0
-413 -216 0
-413 -414 0
-413 -217 0
-216 -414 0
-216 -217 0
-414 -217 0
429 217 430 218 0
-429 -217 0
-429 -430 0
-429 -218 0
-217 -430 0
-217 -218 0
-430 -218 0
445 218 446 219 0
-445 -218 0
-445 -446 0
-445 -219 0
-218 -446 0
-218 -219 0
-446 -219 0
461 219 462 220 0
-461 -219 0
-461 -462 0
-461 -220 0
-219 -462 0
-219 -220 0
-462 -220 0
477 220 478 221 0
-477 -220 0
-477 -478 0
-477 -221 0
-220 -478 0
-220 -221 0
-478 -221 0
493 221 494 222 0
-493 -221 0
-493 -494 0
-493 -222 0
-221 -494 0
-221 -222 0
-494 -222 0
509 222 510 223 0
-509 -222 0
-509 -510 0
-509 -223 0
-222 -510 0
-222 -223 0
-510 -223 0
525 223 526 224 0
-525 -223 0
-525 -526 0
-525 -224 0
-223 -526 0
-223 -224 0
-526 -224 0
541 224 542 0
-541 -224 0
-541 -542 0
-224 -542 0
286 287 225 0
-286 -287 0
-286 -225 0
-287 -225 0
302 225 303 226 0
-302 -225 0
-302 -303 0
-302 -226 0
-225 -303 0
-225 -226 0
-303 -226 0
318 226 319 227 0
-318 -226 0
-318 -319 0
-318 -227 0
-226 -319 0
-226 -227 0
-319 -227 0
334 227 335 228 0
-334 -227 0
-334 -335 0
-334 -228 0
-227 -335 0
-227 -228 0
-335 -228 0
350 228 351 229 0
-350 -228 0
-350 -351 0
-350 -229 0
-228 -351 0
-228 -229 0
-351 -229 0
366 229 367 230 0
-366 -229 0
-366 -367 0
-366 -230 0
-229 -367 0
-229 -230 0
-367 -230 0
382 230 383 231 0
-382 -230 0
-382 -383 0
-382 -231 0
-230 -383 0
-230 -231 0
-383 -231 0
398 231 399 232 0
-398 -231 0
-398 -399 0
-398 -232 0
-231 -399 0
-231 -232 0
-399 -232 0
414 232 415 233 0
-414 -232 0
-414 -415 0
-414 -233 0
-232 -415 0
-232 -233 0
-415 -233 0
430 233 431 234 0
-430 -233 0
-430 -431 0
-430 -234 0
-233 -431 0
-233 -234 0
-431 -234 0
446 234 447 235 0
-446 -234 0
-446 -447 0
-446 -235 0
-234 -447 0
-234 -235 0
-447 -235 0
462 235 463 236 0
-462 -235 0
-462 -463 0
-462 -236 0
-235 -463 0
-235 -236 0
-463 -236 0
478 236 479 237 0
-478 -236 0
-478 -479 0
-478 -237 0
-236 -479 0
-236 -237 0
-479 -237 0
494 237 495 238 0
-494 -237 0
-494 -495 0
-494 -238 0
-237 -495 0
-237 -238 0
-495 -238 0
510 238 511 239 0
-510 -238 0
-510 -511 0
-510 -239 0
-238 -511 0
-238 -239 0
-511 -239 0
526 239 527 240 0
-526 -239 0
-526 -527 0
-526 -240 0
-239 -527 0
-239 -240 0
-527 -240 0
542 240 543 0
-542 -240 0
-542 -543 0
-240 -543 0
287 288 241 0
-287 -288 0
-287 -241 0
-288 -241 0
303 241 304 242 0
-303 -241 0
-303 -304 0
-303 -242 0
-241 -304 0
-241 -242 0
-304 -242 0
319 242 320 243 0
-319 -242 0
-319 -320 0
-319 -243 0
-242 -320 0
-242 -243 0
-320 -243 0
335 243 336 244 0
-335 -243 0
-335 -336 0
-335 -244 0
-243 -336 0
-243 -244 0
-336 -244 0
351 244 352 245 0
-351 -244 0
-351 -352 0
-351 -245 0
-244 -352 0
-244 -245 0
-352 -245 0
367 245 368 246 0
-367 -245 0
-367 -368 0
-367 -246 0
-245 -368 0
-245 -246 0
-368 -246 0
383 246 384 247 0
-383 -246 0
-383 -384 0
-383 -247 0
-246 -384 0
-246 -247 0
-384 -247 0
399 247 400 248 0
-399 -247 0
-399 -400 0
-399 -248 0
-247 -400 0
-247 -248 0
-400 -248 0
415 248 416 249 0
-415 -248 0
-415 -416 0
-415 -249 0
-248 -416 0
-248 -249 0
-416 -249 0
431 249 432 250 0
-431 -249 0
-431 -432 0
-431 -250 0
-249 -432 0
-249 -250 0
-432 -250 0
447 250 448 251 0
-447 -250 0
-447 -448 0
-447 -251 0
-250 -448 0
-250 -251 0
-448 -251 0
463 251 464 252 0
-463 -251 0
-463 -464 0
-463 -252 0
-251 -464 0
-251 -252 0
-464 -252 0
479 252 480 253 0
-479 -252 0
-479 -480 0
-479 -253 0
-252 -480 0
-252 -253 0
-480 -253 0
495 253 496 254 0
-495 -253 0
-495 -496 0
-495 -254 0
-253 -496 0
-253 -254 0
-496 -254 0
511 254 512 255 0
-511 -254 0
-511 -512 0
-511 -255 0
-254 -512 0
-254 -255 0
-512 -255 0
527 255 528 256 0
-527 -255 0
-527 -528 0
-527 -256 0
-255 -528 0
-255 -256 0
-528 -256 0
543 256 0
-543 -256 0
288 257 0
-288 -257 0
304 257 258 0
-304 -257 0
-304 -258 0
-257 -258 0
320 258 259 0
-320 -258 0
-320 -259 0
-258 -259 0
336 259 260 0
-336 -259 0
-336 -260 0
-259 -260 0
352 260 261 0
-352 -260 0
-352 -261 0
-260 -261 0
368 261 262 0
-368 -261 0
-368 -262 0
-261 -262 0
384 262 263 0
-384 -262 0
-384 -263 0
-262 -263 0
400 263 264 0
-400 -263 0
-400 -264 0
-263 -264 0
416 264 265 0
-416 -264 0
-416 -265 0
-264 -265 0
432 265 266 0
-432 -265 0
-432 -266 0
-265 -266 0
448 266 267 0
-448 -266 0
-448 -267 0
-266 -267 0
464 267 268 0
-464 -267 0
-464 -268 0
-267 -268 0
480 268 269 0
-480 -268 0
-480 -269 0
-268 -269 0
496 269 270 0
-496 -269 0
-496 -270 0
-269 -270 0
512 270 271 0
-512 -270 0
-512 -271 0
-270 -271 0
528 271 0
-528 -271 0
-272 0
-544 0
